
Gurobi 6.0.4 (win64) logging started 06/18/15 15:59:04

Read LP format model from file C:\MT\repository\VRPTWMS\instances\mip\freight\N10-C_DV10-C_SV50_F22_3_No_1.lp
Reading time = 0.01 seconds
(null): 621 rows, 288 columns, 2553 nonzeros
Optimize a model with 621 rows, 288 columns and 2553 nonzeros
Model has 1000 quadratic constraints
Coefficient statistics:
  Matrix range    [1e+00, 1e+06]
  Objective range [2e+04, 1e+07]
  Bounds range    [1e+00, 1e+06]
  RHS range       [1e+00, 1e+06]
Presolve removed 77 rows and 28 columns
Presolve time: 0.06s
Presolved: 2154 rows, 1065 columns, 11788 nonzeros
Variable types: 805 continuous, 260 integer (218 binary)
Found heuristic solution: objective 1.034466e+08

Root relaxation: objective 1.713047e+06, 142 iterations, 0.01 seconds

    Nodes    |    Current Node    |     Objective Bounds      |     Work
 Expl Unexpl |  Obj  Depth IntInf | Incumbent    BestBd   Gap | It/Node Time

     0     0 1713047.20    0   55 1.0345e+08 1713047.20  98.3%     -    0s
H    0     0                    9.310880e+07 1713047.20  98.2%     -    0s
H    0     0                    5.211230e+07 1713047.20  96.7%     -    0s
     0     0 2000343.41    0   53 5.2112e+07 2000343.41  96.2%     -    0s
     0     0 2218130.11    0   54 5.2112e+07 2218130.11  95.7%     -    0s
     0     0 2249520.00    0   40 5.2112e+07 2249520.00  95.7%     -    0s
     0     0 2253333.33    0   44 5.2112e+07 2253333.33  95.7%     -    0s
     0     0 2253333.33    0   44 5.2112e+07 2253333.33  95.7%     -    0s
     0     2 2253333.33    0   44 5.2112e+07 2253333.33  95.7%     -    0s
H   50    35                    4.223130e+07 1.1616e+07  72.5%  18.6    0s
H 3291   568                    4.219470e+07 2.5584e+07  39.4%  13.0    3s

Cutting planes:
  Gomory: 1
  Clique: 1
  MIR: 2
  GUB cover: 3

Explored 5179 nodes (58656 simplex iterations) in 4.80 seconds
Thread count was 2 (of 4 available processors)

Optimal solution found (tolerance 1.00e-04)
Best objective 4.219470000000e+07, best bound 4.219470000000e+07, gap 0.0%
k_c1	60000.0
k_c10	100000.0
k_c2	30000.0
k_c3	90000.0
k_c4	50000.0
k_c5	40000.0
k_c6	100000.0
k_c7	100000.0
k_c8	100000.0
k_c9	70000.0
k_dN	-0.0
o_1	0.0
o_10	0.0
o_2	0.0
o_3	0.0
o_4	0.0
o_5	0.0
o_6	-0.0
o_7	0.0
o_8	0.0
o_9	0.0
p_1	0.0
p_10	0.0
p_2	0.0
p_3	0.0
p_4	0.0
p_5	0.0
p_6	-0.0
p_7	0.0
p_8	0.0
p_9	0.0
phi_c1	10294.0
phi_c10	208319.0
phi_c2	8150.0
phi_c3	171274.0
phi_c4	12571.0
phi_c5	17507.0
phi_c6	202338.0
phi_c7	26469.0
phi_c8	193871.0
phi_c9	19006.0
phi_d0	220000.0
phi_dN	-0.0
tauD_c1	650000.0
tauD_c10	250000.0
tauD_c2	634394.0
tauD_c3	502481.0
tauD_c4	782625.0
tauD_c5	684185.0
tauD_c6	500000.0
tauD_c7	424644.0
tauD_c8	103378.0
tauD_c9	622968.0
tauD_d0	-0.0
tauD_dN	1000000.0
tauS_c1	0.0
tauS_c10	0.0
tauS_c2	0.0
tauS_c3	0.0
tauS_c4	0.0
tauS_c5	0.0
tauS_c6	184925.0
tauS_c7	0.0
tauS_c8	0.0
tauS_c9	0.0
tauS_d0	-0.0
tauS_dN	0.0
x_c10_c9	1.0
x_c1_dN	1.0
x_c2_dN	1.0
x_c3_c2	1.0
x_c4_dN	1.0
x_c5_dN	1.0
x_c6_c4	1.0
x_c7_c1	1.0
x_c8_c3	1.0
x_c9_c5	1.0
x_d0_c10	1.0
x_d0_c6	1.0
x_d0_c7	1.0
x_d0_c8	1.0
